100
128
46
6
8
15
35
21
7
39
16
3
23
37
37
27
15
6
30
22
36
11
20
32
38
3
8
17
19
3
59
36
27
64
14
4
25
3
1
47
3
41
12
5
25
5
22
51
48
17
28
29
2
54
42
23
23
20
30
42
55
34
19
18
7
41
39
47
46
50
51
15
17
20
32
53
21
22
43
22
23
35
20
41
29
10
47
35
55
27
55
42
5
43
47
23
7
60
31
64
38
4